
Route #1: 31 38 20 35 24 27 34 14 44 7 18 
Route #2: 23 30 17 39 28 42 5 41 22 43 
Route #3: 4 16 29 19 33 26 25 21 1 
Route #4: 10 36 9 37 13 32 
Route #5: 12 40 11 8 6 3 2 15 
cost 1016.73
total time is 4.7